Route #1: 93 75
Route #2: 27 97 19
Route #3: 8 17
Route #4: 15 22 41 20
Route #5: 30 85 11 79
Route #6: 40 88 67 44
Route #7: 92 9 86
Route #8: 38 47 26 48 96 64 34
Route #9: 25 65 78 42 28
Route #10: 5 12 58
Route #11: 52 91 50
Route #12: 3 77 63
Route #13: 31 46 35
Route #14: 23 61 100
Route #15: 24 95 73 53 33 32
Route #16: 1 70 54
Route #17: 7 2 45 43 29 36 72 57
Route #18: 83 51 81
Route #19: 14 49 6 37 87
Route #20: 69 16 55 76
Route #21: 59 60 82
Route #22: 89 98 99 62 71
Route #23: 4 13 74
Route #24: 80 94 56 21
Route #25: 68 90 84 66
Route #26: 18 10 39
Cost 27591.0000
Time 16.0007